dates = {'2022-09-30','2022-10-01','2022-10-02','2022-10-03','2022-10-04','2022-10-05','2022-10-06','2022-10-07','2022-10-08','2022-10-09'};

daysOfWeek = [Friday,Saturday,Sunday,Monday,Tuesday,Wednesday,Thursday,Friday,Saturday,Sunday];

% For this week, how many people will be here.
numPeople = [25,25,25,25,25,25,25,25,25,25];

% Physical workers need 50 to 100 % more nutrients per day.
numPhysicalWorkers = [13.0,13.0,13.0,13.0,13.0,13.0,13.0,13.0,13.0,13.0];

% Males need +25% more nutrients per day.
numMen = [19,19,19,19,19,19,19,19,19,19];

% Num people who do not eat categories. contains = {none, meat, milk, gluten, egg, nut, seed, sugars}
numRefusals = [| 0,0,0,0,0,0,3,1 | 0,0,0,0,0,0,3,1 | 0,0,0,0,0,0,3,1 | 0,0,0,0,0,0,3,1 | 0,0,0,0,0,0,3,1 | 0,0,0,0,0,0,3,1 | 0,0,0,0,0,0,3,1 | 0,0,0,0,0,0,3,1 | 0,0,0,0,0,0,3,1 | 0,0,0,0,0,0,3,1 |];

